&CONTROL
 calculation = 'scf',
 restart_mode='from_scratch',
 prefix = 'Pb',
 pseudo_dir = '/home/elenacandellone/qe-6.8/pseudo',
 outdir = './tmp',
 tprnfor = .true.,
 tstress = .true.,
 verbosity = 'high',
/
&SYSTEM
 ibrav = 2, 
 celldm(1) = 9.355659,
 nat=1, 
 ntyp=1,
 ecutwfc = 70,
 ecutrho = 560,
 occupations='smearing',
 smearing='mp',
 degauss=0.05
/
&ELECTRONS
 conv_thr = 1.0d-9
/
ATOMIC_SPECIES
 Pb 207.2 Pb.pbesol-dn-kjpaw_psl.1.0.0.UPF

ATOMIC_POSITIONS crystal
Pb 0.00000 0.00000 0.00000

K_POINTS automatic
9 9 9 0 0 0
